RT is False
Default write of storage_offers_DA.csv just to have a file (but constraint should be inactive)
Reading model...
...model read.
creating competitive generators file...
...competitive generators recorded.
Loading data...
.. day-ahead data with real-time VRE data read.
Compiling instance...
...instance created.
Creating Offer Mitigation (model will solve as dispatch if TRUE)...
NOTE: storage offers will not be mitigated
...storage offer mitigation file created
Converting model to MPEC...
...converted
NOTE: initial MIP solve with only storage competitive to get feasible solution
Solving...

Welcome to IBM(R) ILOG(R) CPLEX(R) Interactive Optimizer 12.9.0.0
  with Simplex, Mixed Integer & Barrier Optimizers
5725-A06 5725-A29 5724-Y48 5724-Y49 5724-Y54 5724-Y55 5655-Y21
Copyright IBM Corp. 1988, 2019.  All Rights Reserved.

Type 'help' for a list of available commands.
Type 'help' followed by a command name for more
information on commands.

CPLEX> Logfile 'cplex.log' closed.
Logfile 'C:\Users\llavin\Desktop\test826\logs\tmp6yj44k6l.cplex.log' open.
CPLEX> New value for parallel optimization mode: -1
CPLEX> New value for emphasis for MIP optimization: 1
CPLEX> New value for mixed integer optimality gap tolerance: 0.01
CPLEX> New value for integrality tolerance: 1e-12
CPLEX> New value for deterministic time limit in ticks: 75000
CPLEX> Problem 'C:\Users\llavin\Desktop\test826\logs\tmpgwmaiq4q.pyomo.lp' read.
Read time = 0.22 sec. (13.92 ticks)
CPLEX> Problem name         : C:\Users\llavin\Desktop\test826\logs\tmpgwmaiq4q.pyomo.lp
Objective sense      : Maximize
Variables            :   53809  [Nneg: 1,  Box: 22004,  Free: 4464,
                                 Binary: 27340]
Objective nonzeros   :    9029
Linear constraints   :  123253  [Less: 41346,  Greater: 59096,  Equal: 22811]
  Nonzeros           :  293217
  RHS nonzeros       :   67491

Variables            : Min LB: -5000.000        Max UB: 1000000.       
Objective nonzeros   : Min   : 0.008333333      Max   : 2500.000       
Linear constraints   :
  Nonzeros           : Min   : 0.008333333      Max   : 1000000.       
  RHS nonzeros       : Min   : 0.008333333      Max   : 1000000.       
CPLEX> CPXPARAM_Parallel                                -1
CPXPARAM_Emphasis_MIP                            1
CPXPARAM_DetTimeLimit                            75000
CPXPARAM_MIP_Tolerances_MIPGap                   0.01
CPXPARAM_MIP_Tolerances_Integrality              9.9999999999999998e-13
Tried aggregator 4 times.
MIP Presolve eliminated 88655 rows and 18958 columns.
MIP Presolve added 3379 rows and 0 columns.
MIP Presolve modified 24845 coefficients.
Aggregator did 12988 substitutions.
Reduced MIP has 24989 rows, 21307 columns, and 71890 nonzeros.
Reduced MIP has 8422 binaries, 0 generals, 0 SOSs, and 0 indicators.
Presolve time = 0.31 sec. (192.30 ticks)
Probing fixed 379 vars, tightened 3913 bounds.
Probing time = 0.06 sec. (19.16 ticks)
Tried aggregator 2 times.
MIP Presolve eliminated 860 rows and 760 columns.
MIP Presolve modified 3037 coefficients.
Aggregator did 36 substitutions.
Reduced MIP has 24093 rows, 20511 columns, and 69302 nonzeros.
Reduced MIP has 8042 binaries, 0 generals, 0 SOSs, and 0 indicators.
Presolve time = 0.11 sec. (88.03 ticks)
Probing fixed 1 vars, tightened 272 bounds.
Probing time = 0.13 sec. (24.86 ticks)
Clique table members: 44897.
MIP emphasis: integer feasibility.
MIP search method: dynamic search.
Parallel mode: opportunistic, using up to 32 threads.
Root relaxation solution time = 0.38 sec. (589.53 ticks)

        Nodes                                         Cuts/
   Node  Left     Objective  IInf  Best Integer    Best Bound    ItCnt     Gap

      0     0        0.0000    80                      0.0000     4889         
*     0+    0                            0.0000        0.0000             0.00%
      0     0        cutoff              0.0000       -0.0000     4889    0.00%
Elapsed time = 1.59 sec. (1289.00 ticks, tree = 0.01 MB, solutions = 1)

Root node processing (before b&c):
  Real time             =    1.61 sec. (1290.95 ticks)
Parallel b&c, 32 threads:
  Real time             =    0.00 sec. (0.00 ticks)
  Sync time (average)   =    0.00 sec.
  Wait time (average)   =    0.00 sec.
                          ------------
Total (root+branch&cut) =    1.61 sec. (1290.95 ticks)

Solution pool: 1 solution saved.

MIP - Integer optimal solution:  Objective =  1.7425918486e-09
Solution time =    1.63 sec.  Iterations = 4889  Nodes = 0
Deterministic time = 1291.11 ticks  (794.53 ticks/sec)

CPLEX> Incumbent solution written to file 'C:\Users\llavin\Desktop\test826\logs\tmplga9zb4c.cplex.sol'.
CPLEX> NOTE: no warmstart specified for MIP iteration, default behavior is true
NOTE: resolving with all competitive generators using storage-only solution to warmstart
Solving...

Welcome to IBM(R) ILOG(R) CPLEX(R) Interactive Optimizer 12.9.0.0
  with Simplex, Mixed Integer & Barrier Optimizers
5725-A06 5725-A29 5724-Y48 5724-Y49 5724-Y54 5724-Y55 5655-Y21
Copyright IBM Corp. 1988, 2019.  All Rights Reserved.

Type 'help' for a list of available commands.
Type 'help' followed by a command name for more
information on commands.

CPLEX> Logfile 'cplex.log' closed.
Logfile 'C:\Users\llavin\Desktop\test826\logs\tmp2bva0sbm.cplex.log' open.
CPLEX> New value for parallel optimization mode: -1
CPLEX> New value for emphasis for MIP optimization: 1
CPLEX> New value for mixed integer optimality gap tolerance: 0.01
CPLEX> New value for integrality tolerance: 1e-12
CPLEX> New value for deterministic time limit in ticks: 75000
CPLEX> Problem 'C:\Users\llavin\Desktop\test826\logs\tmpy38uftik.pyomo.lp' read.
Read time = 0.22 sec. (13.94 ticks)
CPLEX> MIP start file 'C:\Users\llavin\Desktop\test826\logs\tmp_fuw7egw.cplex.mst' read.
CPLEX> Problem name         : C:\Users\llavin\Desktop\test826\logs\tmpy38uftik.pyomo.lp
Objective sense      : Maximize
Variables            :   54529  [Nneg: 1,  Box: 22724,  Free: 4464,
                                 Binary: 27340]
Objective nonzeros   :    9725
Linear constraints   :  123253  [Less: 41346,  Greater: 59096,  Equal: 22811]
  Nonzeros           :  293217
  RHS nonzeros       :   67491

Variables            : Min LB: -5000.000        Max UB: 1000000.       
Objective nonzeros   : Min   : 0.008333333      Max   : 2500.000       
Linear constraints   :
  Nonzeros           : Min   : 0.008333333      Max   : 1000000.       
  RHS nonzeros       : Min   : 0.008333333      Max   : 1000000.       
CPLEX> CPXPARAM_Parallel                                -1
CPXPARAM_Emphasis_MIP                            1
CPXPARAM_DetTimeLimit                            75000
CPXPARAM_MIP_Tolerances_MIPGap                   0.01
CPXPARAM_MIP_Tolerances_Integrality              9.9999999999999998e-13
Warning:  No solution found from 1 MIP starts.
Retaining values of one MIP start for possible repair.
Tried aggregator 4 times.
MIP Presolve eliminated 88655 rows and 19678 columns.
MIP Presolve added 3379 rows and 0 columns.
MIP Presolve modified 24845 coefficients.
Aggregator did 12988 substitutions.
Reduced MIP has 24989 rows, 21307 columns, and 71890 nonzeros.
Reduced MIP has 8422 binaries, 0 generals, 0 SOSs, and 0 indicators.
Presolve time = 0.31 sec. (192.71 ticks)
Probing fixed 379 vars, tightened 3913 bounds.
Probing time = 0.06 sec. (19.16 ticks)
Tried aggregator 2 times.
MIP Presolve eliminated 860 rows and 760 columns.
MIP Presolve modified 3037 coefficients.
Aggregator did 36 substitutions.
Reduced MIP has 24093 rows, 20511 columns, and 69302 nonzeros.
Reduced MIP has 8042 binaries, 0 generals, 0 SOSs, and 0 indicators.
Presolve time = 0.11 sec. (88.04 ticks)
Probing fixed 1 vars, tightened 272 bounds.
Probing time = 0.13 sec. (24.86 ticks)
Clique table members: 44897.
MIP emphasis: integer feasibility.
MIP search method: dynamic search.
Parallel mode: opportunistic, using up to 32 threads.
Root relaxation solution time = 0.45 sec. (642.12 ticks)

        Nodes                                         Cuts/
   Node  Left     Objective  IInf  Best Integer    Best Bound    ItCnt     Gap

      0     0   163638.4219   247                 163638.4219     5765         
      0     0   154568.6338   183                   Cuts: 169     5968         
      0     0   153584.1166   184                    Cuts: 55     6048         
      0     0   153584.1166   185                     Cuts: 4     6053         
Repair heuristic found nothing.
      0    14   131132.8503   141                 Flowcuts: 3     6161         
Elapsed time = 4.25 sec. (1878.54 ticks, tree = 0.02 MB, solutions = 0)
    702   280   120465.5805   129                 139405.9874     8333         
   1171   841   107608.1628   142                 139405.9874    16185         
   1777  1224    33460.8617    70                 139405.9874    23111         
   2393  1559    -1714.8682    56                 139405.9874    35453         
   2999  1908   -13342.9153    40                 139405.9874    42811         
   3679  2415   -95815.1892    40                 139405.9874    51457         
   4361  2698  -122674.3073    40                 139405.9874    56616         
   4994  3361     4254.2631    40                 139405.9874    82010         
   5684  3404    13907.3908    44                 139405.9874    82861         
*  6214+ 2232                            0.0000   139405.9874              --- 
Elapsed time = 16.91 sec. (4209.57 ticks, tree = 12.07 MB, solutions = 1)
   8796  2949    10272.6695    46        0.0000   137036.6879   142070     --- 
*  8925+ 2480                            0.0000    28275.0953              --- 
   8925  2488    infeasible              0.0000    28247.4932   178552     --- 
   9564    22     1079.6421    43        0.0000     1079.6421   187291     --- 

Cover cuts applied:  5
Implied bound cuts applied:  53
Flow cuts applied:  129
Mixed integer rounding cuts applied:  4
Lift and project cuts applied:  2
Gomory fractional cuts applied:  1
Warning: integer solution contains unscaled infeasibilities.

Root node processing (before b&c):
  Real time             =    2.63 sec. (1830.75 ticks)
Parallel b&c, 32 threads:
  Real time             =   25.76 sec. (6760.89 ticks)
  Sync time (average)   =    2.65 sec.
  Wait time (average)   =    0.24 sec.
                          ------------
Total (root+branch&cut) =   28.39 sec. (8591.64 ticks)

Solution pool: 2 solutions saved.

Maximum unscaled integer infeasibility = 7.84006e-10.
MIP - Integer optimal with unscaled infeasibilities:  Objective =  6.0654274421e-06
Solution time =   28.41 sec.  Iterations = 187688  Nodes = 9566
Deterministic time = 8591.79 ticks  (302.45 ticks/sec)

CPLEX> Incumbent solution written to file 'C:\Users\llavin\Desktop\test826\logs\tmp49trcqrf.cplex.sol'.
CPLEX> Exporting results... 
